(set-logic HORN)
(set-info :source |
    Benchmark: C_VC
    Output by Princess (http://www.philipp.ruemmer.org/princess.shtml)
|)
(set-info :status unknown)
(declare-fun inv_main22 (Int Int Int Int) Bool)
(declare-fun inv_main6 (Int Int Int Int) Bool)
(assert (inv_main6 1 0 0 0 ) )
(assert (forall ((var0 Int)) (forall ((var1 Int)) (forall ((var2 Int)) (forall ((var3 Int)) (forall ((var4 Int)) (or (not (and (inv_main6 var3 var1 var4 var0 ) (and (not (= var4 var0 ) ) (= var2 0 ) ) ) ) (inv_main22 var3 var1 var4 var0 ) ) ) ) ) ) ) )
(assert (forall ((var0 Int)) (forall ((var1 Int)) (forall ((var2 Int)) (forall ((var3 Int)) (forall ((var4 Int)) (or (not (and (inv_main6 var2 var1 var3 var0 ) (and (not (= var1 0 ) ) (and (= var2 0 ) (not (= var4 0 ) ) ) ) ) ) (inv_main6 var2 var1 var3 var0 ) ) ) ) ) ) ) )
(assert (forall ((var0 Int)) (forall ((var1 Int)) (forall ((var2 Int)) (forall ((var3 Int)) (forall ((var4 Int)) (or (not (and (inv_main6 var2 var1 var3 var0 ) (and (= var1 0 ) (and (= var2 0 ) (not (= var4 0 ) ) ) ) ) ) (or (and (= var1 0 ) (inv_main6 var2 1 var3 (+ var0 1 ) ) ) (and (not (= var1 0 ) ) (inv_main6 var2 0 var3 (+ var0 1 ) ) ) ) ) ) ) ) ) ) )
(assert (forall ((var0 Int)) (forall ((var1 Int)) (forall ((var2 Int)) (forall ((var3 Int)) (forall ((var4 Int)) (or (not (and (inv_main6 var2 var1 var3 var0 ) (and (not (= var1 0 ) ) (and (not (= var2 0 ) ) (not (= var4 0 ) ) ) ) ) ) (or (and (= var2 0 ) (inv_main6 1 var1 (+ var3 1 ) var0 ) ) (and (not (= var2 0 ) ) (inv_main6 0 var1 (+ var3 1 ) var0 ) ) ) ) ) ) ) ) ) )
(assert (forall ((var0 Int)) (forall ((var1 Int)) (forall ((var2 Int)) (forall ((var3 Int)) (forall ((var4 Int)) (or (not (and (inv_main6 var2 var1 var3 var0 ) (and (= var1 0 ) (and (not (= var2 0 ) ) (not (= var4 0 ) ) ) ) ) ) (or (and (= var2 0 ) (or (and (= var1 0 ) (inv_main6 1 1 (+ var3 1 ) (+ var0 1 ) ) ) (and (not (= var1 0 ) ) (inv_main6 1 0 (+ var3 1 ) (+ var0 1 ) ) ) ) ) (and (not (= var2 0 ) ) (or (and (= var1 0 ) (inv_main6 0 1 (+ var3 1 ) (+ var0 1 ) ) ) (and (not (= var1 0 ) ) (inv_main6 0 0 (+ var3 1 ) (+ var0 1 ) ) ) ) ) ) ) ) ) ) ) ) )
(assert (forall ((var0 Int)) (forall ((var1 Int)) (forall ((var2 Int)) (forall ((var3 Int)) (not (inv_main22 var2 var1 var3 var0 ) ) ) ) ) ) )
(check-sat)
